3 3 2
20 1 15 0 27 1 9 2 15 0 36 1 7 0 14 1 20 0 16 2 12 1 25 0 3 2 6 1 32 0 33 2 38 0 33 2 42 0 38 2 10 
20 0 5 1 28 0 13 2 2 1 9 0 47 1 11 2 13 0 42 1 44 0 38 2 23 0 26 2 30 1 43 0 18 2 9 0 47 1 22 2 39 
20 1 38 2 19 0 39 1 13 2 36 1 47 0 8 1 37 0 40 2 40 1 18 0 12 1 44 2 43 0 20 1 2 2 20 0 28 2 13 0 36 

-------------
